Cost: 450
0-49-23-43-41-42-22-0
0-9-25-32-44-0
0-10-11-14-19-0
0-26-12-40-17-0
0-45-29-15-47-48-0
0-27-13-8-46-34-0
0-6-2-30-4-0
Cost: 450
0-49-23-43-41-42-22-0
0-9-25-32-44-0
0-10-11-14-19-0
0-26-12-40-17-0
0-45-29-15-47-48-0
0-27-13-8-46-34-0
0-6-2-30-4-0
Cost: 450
0-49-23-43-41-42-22-0
0-9-25-32-44-0
0-10-11-14-19-0
0-26-12-40-17-0
0-45-29-15-47-48-0
0-27-13-8-46-34-0
0-6-2-30-4-0
Cost: 450
0-49-23-43-41-42-22-0
0-9-25-32-44-0
0-10-11-14-19-0
0-26-12-40-17-0
0-45-29-15-47-48-0
0-27-13-8-46-34-0
0-6-2-30-4-0
Cost: 450
0-49-23-43-41-42-22-0
0-9-25-32-44-0
0-10-11-14-19-0
0-26-12-40-17-0
0-45-29-15-47-48-0
0-27-13-8-46-34-0
0-6-2-30-4-0
Cost: 450
0-49-23-43-41-42-22-0
0-9-25-32-44-0
0-10-11-14-19-0
0-26-12-40-17-0
0-45-29-15-47-48-0
0-27-13-8-46-34-0
0-6-2-30-4-0
Cost: 450
0-49-23-43-41-42-22-0
0-9-25-32-44-0
0-10-11-14-19-0
0-26-12-40-17-0
0-45-29-15-47-48-0
0-27-13-8-46-34-0
0-6-2-30-4-0
Cost: 450
0-49-23-43-41-42-22-0
0-9-25-32-44-0
0-10-11-14-19-0
0-26-12-40-17-0
0-45-29-15-47-48-0
0-27-13-8-46-34-0
0-6-2-30-4-0
Cost: 450
0-49-23-43-41-42-22-0
0-9-25-32-44-0
0-10-11-14-19-0
0-26-12-40-17-0
0-45-29-15-47-48-0
0-27-13-8-46-34-0
0-6-2-30-4-0
Cost: 450
0-49-23-43-41-42-22-0
0-9-25-32-44-0
0-10-11-14-19-0
0-26-12-40-17-0
0-45-29-15-47-48-0
0-27-13-8-46-34-0
0-6-2-30-4-0
Cost: 450
0-49-23-43-41-42-22-0
0-9-25-32-44-0
0-10-11-14-19-0
0-26-12-40-17-0
0-45-29-15-47-48-0
0-27-13-8-46-34-0
0-6-2-30-4-0
Cost: 450
0-49-23-43-41-42-22-0
0-9-25-32-44-0
0-10-11-14-19-0
0-26-12-40-17-0
0-45-29-15-47-48-0
0-27-13-8-46-34-0
0-6-2-30-4-0
Cost: 450
0-49-23-43-41-42-22-0
0-9-25-32-44-0
0-10-11-14-19-0
0-26-12-40-17-0
0-45-29-15-47-48-0
0-27-13-8-46-34-0
0-6-2-30-4-0
Cost: 450
0-49-23-43-41-42-22-0
0-9-25-32-44-0
0-10-11-14-19-0
0-26-12-40-17-0
0-45-29-15-47-48-0
0-27-13-8-46-34-0
0-6-2-30-4-0
Cost: 450
0-49-23-43-41-42-22-0
0-9-25-32-44-0
0-10-11-14-19-0
0-26-12-40-17-0
0-45-29-15-47-48-0
0-27-13-8-46-34-0
0-6-2-30-4-0
Cost: 450
0-49-23-43-41-42-22-0
0-9-25-32-44-0
0-10-11-14-19-0
0-26-12-40-17-0
0-45-29-15-47-48-0
0-27-13-8-46-34-0
0-6-2-30-4-0
Cost: 450
0-49-23-43-41-42-22-0
0-9-25-32-44-0
0-10-11-14-19-0
0-26-12-40-17-0
0-45-29-15-47-48-0
0-27-13-8-46-34-0
0-6-2-30-4-0
Cost: 450
0-49-23-43-41-42-22-0
0-9-25-32-44-0
0-10-11-14-19-0
0-26-12-40-17-0
0-45-29-15-47-48-0
0-27-13-8-46-34-0
0-6-2-30-4-0
Cost: 450
0-49-23-43-41-42-22-0
0-9-25-32-44-0
0-10-11-14-19-0
0-26-12-40-17-0
0-45-29-15-47-48-0
0-27-13-8-46-34-0
0-6-2-30-4-0
Cost: 450
0-49-23-43-41-42-22-0
0-9-25-32-44-0
0-10-11-14-19-0
0-26-12-40-17-0
0-45-29-15-47-48-0
0-27-13-8-46-34-0
0-6-2-30-4-0
Cost: 450
0-49-23-43-41-42-22-0
0-9-25-32-44-0
0-10-11-14-19-0
0-26-12-40-17-0
0-45-29-15-47-48-0
0-27-13-8-46-34-0
0-6-2-30-4-0
Cost: 450
0-49-23-43-41-42-22-0
0-9-25-32-44-0
0-10-11-14-19-0
0-26-12-40-17-0
0-45-29-15-47-48-0
0-27-13-8-46-34-0
0-6-2-30-4-0
Cost: 450
0-10-11-14-19-0
0-6-2-30-4-0
0-34-46-8-13-27-0
0-22-42-41-43-23-49-0
0-26-12-40-17-0
0-45-29-15-47-48-0
0-44-32-25-9-0
Cost: 450
0-49-23-43-41-42-22-0
0-9-25-32-44-0
0-10-11-14-19-0
0-26-12-40-17-0
0-45-29-15-47-48-0
0-27-13-8-46-34-0
0-6-2-30-4-0
Cost: 450
0-49-23-43-41-42-22-0
0-9-25-32-44-0
0-10-11-14-19-0
0-26-12-40-17-0
0-45-29-15-47-48-0
0-27-13-8-46-34-0
0-6-2-30-4-0
Cost: 450
0-49-23-43-41-42-22-0
0-9-25-32-44-0
0-10-11-14-19-0
0-26-12-40-17-0
0-45-29-15-47-48-0
0-27-13-8-46-34-0
0-6-2-30-4-0
Cost: 450
0-10-11-14-19-0
0-48-47-15-29-45-0
0-49-23-43-41-42-22-0
0-9-25-32-44-0
0-17-40-12-26-0
0-6-2-30-4-0
0-27-13-8-46-34-0
Cost: 454
0-19-14-11-10-0
0-8-13-27-46-34-0
0-17-40-12-26-0
0-49-23-43-41-42-22-0
0-6-2-30-4-0
0-45-29-15-47-48-0
0-9-25-32-44-0
Cost: 453
0-44-32-25-9-0
0-22-42-41-43-23-49-0
0-4-34-46-0
0-2-21-47-48-45-0
0-7-14-11-10-0
0-27-13-15-29-30-0
0-26-12-40-17-6-0
Cost: 450
0-4-30-2-6-0
0-9-25-32-44-0
0-17-40-12-26-0
0-19-14-11-10-0
0-48-47-15-29-45-0
0-49-23-43-41-42-22-0
0-27-13-8-46-34-0
Cost: 450
0-48-47-15-29-45-0
0-9-25-32-44-0
0-34-46-8-13-27-0
0-10-11-14-19-0
0-26-12-40-17-0
0-49-23-43-41-42-22-0
0-6-2-30-4-0
